TCS_Benchmarks/redos_fix/regexlib2_output_distinct_488_487_1_0.txt
(( )*)(( )*)
(( )*)(\£{0,1})(( )*)